permute transformed problem using random seed 20260511
presolving:
(round 1, fast)       0 del vars, 8 del conss, 0 add conss, 0 chg bounds, 0 chg sides, 0 chg coeffs, 0 upgd conss, 0 impls, 19 clqs, 0 implints
(round 2, fast)       0 del vars, 8 del conss, 0 add conss, 4 chg bounds, 0 chg sides, 0 chg coeffs, 0 upgd conss, 0 impls, 19 clqs, 0 implints
(round 3, fast)       0 del vars, 8 del conss, 0 add conss, 4 chg bounds, 0 chg sides, 4 chg coeffs, 0 upgd conss, 0 impls, 19 clqs, 0 implints
   (0.1s) running MILP presolver
   (0.1s) MILP presolver found nothing
(round 4, exhaustive) 0 del vars, 8 del conss, 0 add conss, 4 chg bounds, 0 chg sides, 4 chg coeffs, 75 upgd conss, 0 impls, 19 clqs, 0 implints
   (0.1s) probing cycle finished: starting next cycle
   (0.1s) symmetry computation started: requiring (bin +, int +, cont +), (fixed: bin -, int -, cont -)
   (0.1s) no symmetry present (symcode time: 0.00)
presolving (5 rounds: 5 fast, 2 medium, 2 exhaustive):
 0 deleted vars, 8 deleted constraints, 0 added constraints, 4 tightened bounds, 0 added holes, 0 changed sides, 4 changed coefficients
 1616 implications, 1144 cliques, 0 implied integral variables (0 bin, 0 int, 0 cont)
presolved problem has 142 variables (86 bin, 0 int, 56 cont) and 325 constraints
     56 constraints of type <varbound>
     19 constraints of type <setppc>
    250 constraints of type <linear>
Presolving Time: 0.02

 time | node  | left  |LP iter|LP it/n|mem/heur|mdpt |vars |cons |rows |cuts |sepa|confs|strbr|  dualbound   | primalbound  |  gap   | compl. 
p 0.1s|     1 |     0 |     0 |     - | vbounds|   0 | 142 | 329 | 325 |   0 |  0 |   3 |   0 | 0.000000e+00 | 2.399026e+02 |    Inf | unknown
  0.1s|     1 |     0 |    25 |     - |  3739k |   0 | 142 | 329 | 325 |   0 |  0 |   3 |   0 | 1.997020e+01 | 2.399026e+02 |1101.30%| unknown
  0.1s|     1 |     0 |    33 |     - |  3955k |   0 | 142 | 329 | 333 |   8 |  1 |   3 |   0 | 1.997020e+01 | 2.399026e+02 |1101.30%| unknown
  0.1s|     1 |     0 |    41 |     - |  3992k |   0 | 142 | 329 | 341 |  16 |  2 |   3 |   0 | 1.997020e+01 | 2.399026e+02 |1101.30%| unknown
  0.1s|     1 |     0 |    59 |     - |  4054k |   0 | 142 | 329 | 346 |  21 |  3 |   3 |   0 | 1.997020e+01 | 2.399026e+02 |1101.30%| unknown
  0.1s|     1 |     0 |    70 |     - |  4091k |   0 | 142 | 329 | 353 |  28 |  4 |   3 |   0 | 1.997020e+01 | 2.399026e+02 |1101.30%| unknown
  0.1s|     1 |     0 |    77 |     - |  4136k |   0 | 142 | 329 | 361 |  36 |  5 |   3 |   0 | 1.997020e+01 | 2.399026e+02 |1101.30%| unknown
  0.1s|     1 |     0 |    85 |     - |  4175k |   0 | 142 | 329 | 369 |  44 |  6 |   3 |   0 | 1.997020e+01 | 2.399026e+02 |1101.30%| unknown
  0.1s|     1 |     0 |   110 |     - |  4217k |   0 | 142 | 329 | 376 |  51 |  7 |   3 |   0 | 2.092018e+01 | 2.399026e+02 |1046.75%| unknown
  0.1s|     1 |     0 |   123 |     - |  4325k |   0 | 142 | 329 | 382 |  57 |  8 |   3 |   0 | 2.282013e+01 | 2.399026e+02 | 951.28%| unknown
  0.1s|     1 |     0 |   129 |     - |  4370k |   0 | 142 | 329 | 387 |  62 |  9 |   3 |   0 | 2.282013e+01 | 2.399026e+02 | 951.28%| unknown
  0.1s|     1 |     0 |   143 |     - |  4463k |   0 | 142 | 329 | 390 |  65 | 10 |   3 |   0 | 2.282013e+01 | 2.399026e+02 | 951.28%| unknown
  0.2s|     1 |     0 |   152 |     - |  4582k |   0 | 142 | 329 | 397 |  73 | 11 |   3 |   0 | 2.282013e+01 | 2.399026e+02 | 951.28%| unknown
  0.2s|     1 |     0 |   160 |     - |  4685k |   0 | 142 | 329 | 404 |  80 | 12 |   3 |   0 | 2.282013e+01 | 2.399026e+02 | 951.28%| unknown
  0.2s|     1 |     0 |   174 |     - |  4729k |   0 | 142 | 329 | 407 |  83 | 13 |   3 |   0 | 2.282013e+01 | 2.399026e+02 | 951.28%| unknown
 time | node  | left  |LP iter|LP it/n|mem/heur|mdpt |vars |cons |rows |cuts |sepa|confs|strbr|  dualbound   | primalbound  |  gap   | compl. 
  0.2s|     1 |     0 |   181 |     - |  4809k |   0 | 142 | 329 | 411 |  87 | 14 |   3 |   0 | 2.282013e+01 | 2.399026e+02 | 951.28%| unknown
  0.2s|     1 |     0 |   189 |     - |  4858k |   0 | 142 | 331 | 414 |  90 | 15 |   5 |   0 | 2.282013e+01 | 2.399026e+02 | 951.28%| unknown
  0.2s|     1 |     0 |   192 |     - |  4903k |   0 | 142 | 331 | 418 |  94 | 16 |   5 |   0 | 2.282013e+01 | 2.399026e+02 | 951.28%| unknown
  0.2s|     1 |     0 |   209 |     - |  4951k |   0 | 142 | 331 | 404 |  96 | 17 |   5 |   0 | 2.282013e+01 | 2.399026e+02 | 951.28%| unknown
  0.2s|     1 |     0 |   220 |     - |  4970k |   0 | 142 | 331 | 408 | 100 | 18 |   5 |   0 | 2.282013e+01 | 2.399026e+02 | 951.28%| unknown
  0.2s|     1 |     0 |   232 |     - |  5014k |   0 | 142 | 331 | 412 | 104 | 19 |   5 |   0 | 2.282013e+01 | 2.399026e+02 | 951.28%| unknown
  0.2s|     1 |     0 |   243 |     - |  5058k |   0 | 142 | 331 | 416 | 108 | 20 |   5 |   0 | 2.282013e+01 | 2.399026e+02 | 951.28%| unknown
  0.2s|     1 |     0 |   250 |     - |  5316k |   0 | 142 | 331 | 422 | 114 | 21 |   5 |   0 | 2.282013e+01 | 2.399026e+02 | 951.28%| unknown
  0.2s|     1 |     0 |   254 |     - |  5321k |   0 | 142 | 331 | 427 | 119 | 22 |   5 |   0 | 2.282013e+01 | 2.399026e+02 | 951.28%| unknown
  0.2s|     1 |     0 |   255 |     - |  5326k |   0 | 142 | 331 | 399 | 120 | 23 |   5 |   0 | 2.282013e+01 | 2.399026e+02 | 951.28%| unknown
d 0.2s|     1 |     0 |  1323 |     - |conflict|   0 | 142 | 331 | 399 |   0 | 24 |   5 |   0 | 2.282013e+01 | 2.351209e+02 | 930.32%| unknown
  0.2s|     1 |     0 |  1323 |     - |  5381k |   0 | 142 | 331 | 399 | 120 | 24 |   5 |   0 | 2.282013e+01 | 2.351209e+02 | 930.32%| unknown
  0.2s|     1 |     2 |  1323 |     - |  5382k |   0 | 142 | 331 | 399 | 120 | 25 |   5 |   8 | 2.282013e+01 | 2.351209e+02 | 930.32%| unknown
* 0.2s|     2 |     1 |  1518 |1263.0 |strongbr|   1 | 142 | 333 | 372 | 120 |  3 |   7 |  13 | 2.282013e+01 | 2.322710e+02 | 917.83%| unknown
* 0.3s|     8 |     1 |  2228 | 281.9 |strongbr|   4 | 142 | 327 | 372 | 120 |  2 |  14 |  69 | 2.282013e+01 | 1.322710e+02 | 479.62%|  38.31%

SCIP Status        : problem is solved [optimal solution found]
Solving Time (sec) : 0.34
Solving Nodes      : 25
Primal Bound       : +1.32270984000000e+02 (4 solutions)
Dual Bound         : +1.32270984000000e+02
Gap                : 0.00 %
permute transformed problem using random seed 20260511
presolving:
(round 1, fast)       0 del vars, 8 del conss, 0 add conss, 0 chg bounds, 0 chg sides, 0 chg coeffs, 0 upgd conss, 0 impls, 19 clqs, 0 implints
(round 2, fast)       0 del vars, 8 del conss, 0 add conss, 4 chg bounds, 0 chg sides, 0 chg coeffs, 0 upgd conss, 0 impls, 19 clqs, 0 implints
(round 3, fast)       0 del vars, 8 del conss, 0 add conss, 4 chg bounds, 0 chg sides, 4 chg coeffs, 0 upgd conss, 0 impls, 19 clqs, 0 implints
   (0.1s) running MILP presolver
   (0.1s) MILP presolver found nothing
(round 4, exhaustive) 0 del vars, 8 del conss, 0 add conss, 4 chg bounds, 0 chg sides, 4 chg coeffs, 75 upgd conss, 0 impls, 19 clqs, 0 implints
   (0.1s) probing cycle finished: starting next cycle
   (0.1s) symmetry computation started: requiring (bin +, int +, cont +), (fixed: bin -, int -, cont -)
   (0.1s) no symmetry present (symcode time: 0.00)
presolving (5 rounds: 5 fast, 2 medium, 2 exhaustive):
 0 deleted vars, 8 deleted constraints, 0 added constraints, 4 tightened bounds, 0 added holes, 0 changed sides, 4 changed coefficients
 1616 implications, 1144 cliques, 0 implied integral variables (0 bin, 0 int, 0 cont)
presolved problem has 142 variables (86 bin, 0 int, 56 cont) and 325 constraints
     56 constraints of type <varbound>
     19 constraints of type <setppc>
    250 constraints of type <linear>
Presolving Time: 0.04

 time | node  | left  |LP iter|LP it/n|mem/heur|mdpt |vars |cons |rows |cuts |sepa|confs|strbr|  dualbound   | primalbound  |  gap   | compl. 
p 0.1s|     1 |     0 |     0 |     - | vbounds|   0 | 142 | 329 | 325 |   0 |  0 |   3 |   0 | 0.000000e+00 | 2.399026e+02 |    Inf | unknown
  0.1s|     1 |     0 |    25 |     - |  3739k |   0 | 142 | 329 | 325 |   0 |  0 |   3 |   0 | 1.997020e+01 | 2.399026e+02 |1101.30%| unknown
  0.1s|     1 |     0 |    33 |     - |  3955k |   0 | 142 | 329 | 333 |   8 |  1 |   3 |   0 | 1.997020e+01 | 2.399026e+02 |1101.30%| unknown
  0.1s|     1 |     0 |    41 |     - |  3992k |   0 | 142 | 329 | 341 |  16 |  2 |   3 |   0 | 1.997020e+01 | 2.399026e+02 |1101.30%| unknown
  0.1s|     1 |     0 |    59 |     - |  4054k |   0 | 142 | 329 | 346 |  21 |  3 |   3 |   0 | 1.997020e+01 | 2.399026e+02 |1101.30%| unknown
  0.1s|     1 |     0 |    70 |     - |  4091k |   0 | 142 | 329 | 353 |  28 |  4 |   3 |   0 | 1.997020e+01 | 2.399026e+02 |1101.30%| unknown
  0.1s|     1 |     0 |    77 |     - |  4136k |   0 | 142 | 329 | 361 |  36 |  5 |   3 |   0 | 1.997020e+01 | 2.399026e+02 |1101.30%| unknown
  0.1s|     1 |     0 |    85 |     - |  4175k |   0 | 142 | 329 | 369 |  44 |  6 |   3 |   0 | 1.997020e+01 | 2.399026e+02 |1101.30%| unknown
  0.1s|     1 |     0 |   110 |     - |  4217k |   0 | 142 | 329 | 376 |  51 |  7 |   3 |   0 | 2.092018e+01 | 2.399026e+02 |1046.75%| unknown
  0.1s|     1 |     0 |   123 |     - |  4325k |   0 | 142 | 329 | 382 |  57 |  8 |   3 |   0 | 2.282013e+01 | 2.399026e+02 | 951.28%| unknown
  0.1s|     1 |     0 |   129 |     - |  4370k |   0 | 142 | 329 | 387 |  62 |  9 |   3 |   0 | 2.282013e+01 | 2.399026e+02 | 951.28%| unknown
  0.1s|     1 |     0 |   143 |     - |  4463k |   0 | 142 | 329 | 390 |  65 | 10 |   3 |   0 | 2.282013e+01 | 2.399026e+02 | 951.28%| unknown
  0.1s|     1 |     0 |   152 |     - |  4582k |   0 | 142 | 329 | 397 |  73 | 11 |   3 |   0 | 2.282013e+01 | 2.399026e+02 | 951.28%| unknown
  0.1s|     1 |     0 |   160 |     - |  4685k |   0 | 142 | 329 | 404 |  80 | 12 |   3 |   0 | 2.282013e+01 | 2.399026e+02 | 951.28%| unknown
  0.1s|     1 |     0 |   174 |     - |  4729k |   0 | 142 | 329 | 407 |  83 | 13 |   3 |   0 | 2.282013e+01 | 2.399026e+02 | 951.28%| unknown
 time | node  | left  |LP iter|LP it/n|mem/heur|mdpt |vars |cons |rows |cuts |sepa|confs|strbr|  dualbound   | primalbound  |  gap   | compl. 
  0.1s|     1 |     0 |   181 |     - |  4809k |   0 | 142 | 329 | 411 |  87 | 14 |   3 |   0 | 2.282013e+01 | 2.399026e+02 | 951.28%| unknown
  0.1s|     1 |     0 |   189 |     - |  4858k |   0 | 142 | 331 | 414 |  90 | 15 |   5 |   0 | 2.282013e+01 | 2.399026e+02 | 951.28%| unknown
  0.1s|     1 |     0 |   192 |     - |  4903k |   0 | 142 | 331 | 418 |  94 | 16 |   5 |   0 | 2.282013e+01 | 2.399026e+02 | 951.28%| unknown
  0.1s|     1 |     0 |   209 |     - |  4951k |   0 | 142 | 331 | 404 |  96 | 17 |   5 |   0 | 2.282013e+01 | 2.399026e+02 | 951.28%| unknown
  0.1s|     1 |     0 |   220 |     - |  4970k |   0 | 142 | 331 | 408 | 100 | 18 |   5 |   0 | 2.282013e+01 | 2.399026e+02 | 951.28%| unknown
  0.1s|     1 |     0 |   232 |     - |  5014k |   0 | 142 | 331 | 412 | 104 | 19 |   5 |   0 | 2.282013e+01 | 2.399026e+02 | 951.28%| unknown
  0.1s|     1 |     0 |   243 |     - |  5058k |   0 | 142 | 331 | 416 | 108 | 20 |   5 |   0 | 2.282013e+01 | 2.399026e+02 | 951.28%| unknown
  0.1s|     1 |     0 |   250 |     - |  5316k |   0 | 142 | 331 | 422 | 114 | 21 |   5 |   0 | 2.282013e+01 | 2.399026e+02 | 951.28%| unknown
  0.1s|     1 |     0 |   254 |     - |  5321k |   0 | 142 | 331 | 427 | 119 | 22 |   5 |   0 | 2.282013e+01 | 2.399026e+02 | 951.28%| unknown
  0.1s|     1 |     0 |   255 |     - |  5326k |   0 | 142 | 331 | 399 | 120 | 23 |   5 |   0 | 2.282013e+01 | 2.399026e+02 | 951.28%| unknown
d 0.2s|     1 |     0 |  1323 |     - |conflict|   0 | 142 | 331 | 399 |   0 | 24 |   5 |   0 | 2.282013e+01 | 2.351209e+02 | 930.32%| unknown
  0.2s|     1 |     0 |  1323 |     - |  5381k |   0 | 142 | 331 | 399 | 120 | 24 |   5 |   0 | 2.282013e+01 | 2.351209e+02 | 930.32%| unknown
  0.2s|     1 |     2 |  1323 |     - |  5382k |   0 | 142 | 331 | 399 | 120 | 25 |   5 |   8 | 2.282013e+01 | 2.351209e+02 | 930.32%| unknown
* 0.2s|     2 |     1 |  1518 |1263.0 |strongbr|   1 | 142 | 333 | 372 | 120 |  3 |   7 |  13 | 2.282013e+01 | 2.322710e+02 | 917.83%| unknown
* 0.2s|     8 |     1 |  2228 | 281.9 |strongbr|   4 | 142 | 327 | 372 | 120 |  2 |  14 |  69 | 2.282013e+01 | 1.322710e+02 | 479.62%|  38.31%

SCIP Status        : problem is solved [optimal solution found]
Solving Time (sec) : 0.33
Solving Nodes      : 25
Primal Bound       : +1.32270984000000e+02 (4 solutions)
Dual Bound         : +1.32270984000000e+02
Gap                : 0.00 %
permute transformed problem using random seed 20260511
presolving:
(round 1, fast)       0 del vars, 8 del conss, 0 add conss, 0 chg bounds, 0 chg sides, 0 chg coeffs, 0 upgd conss, 0 impls, 19 clqs, 0 implints
(round 2, fast)       0 del vars, 8 del conss, 0 add conss, 4 chg bounds, 0 chg sides, 0 chg coeffs, 0 upgd conss, 0 impls, 19 clqs, 0 implints
(round 3, fast)       0 del vars, 8 del conss, 0 add conss, 4 chg bounds, 0 chg sides, 4 chg coeffs, 0 upgd conss, 0 impls, 19 clqs, 0 implints
   (0.0s) running MILP presolver
   (0.0s) MILP presolver found nothing
(round 4, exhaustive) 0 del vars, 8 del conss, 0 add conss, 4 chg bounds, 0 chg sides, 4 chg coeffs, 75 upgd conss, 0 impls, 19 clqs, 0 implints
   (0.0s) probing cycle finished: starting next cycle
   (0.0s) symmetry computation started: requiring (bin +, int +, cont +), (fixed: bin -, int -, cont -)
   (0.0s) no symmetry present (symcode time: 0.00)
presolving (5 rounds: 5 fast, 2 medium, 2 exhaustive):
 0 deleted vars, 8 deleted constraints, 0 added constraints, 4 tightened bounds, 0 added holes, 0 changed sides, 4 changed coefficients
 1616 implications, 1144 cliques, 0 implied integral variables (0 bin, 0 int, 0 cont)
presolved problem has 142 variables (86 bin, 0 int, 56 cont) and 325 constraints
     56 constraints of type <varbound>
     19 constraints of type <setppc>
    250 constraints of type <linear>
Presolving Time: 0.01

 time | node  | left  |LP iter|LP it/n|mem/heur|mdpt |vars |cons |rows |cuts |sepa|confs|strbr|  dualbound   | primalbound  |  gap   | compl. 
p 0.0s|     1 |     0 |     0 |     - | vbounds|   0 | 142 | 329 | 325 |   0 |  0 |   3 |   0 | 0.000000e+00 | 2.399026e+02 |    Inf | unknown
  0.0s|     1 |     0 |    25 |     - |  3739k |   0 | 142 | 329 | 325 |   0 |  0 |   3 |   0 | 1.997020e+01 | 2.399026e+02 |1101.30%| unknown
  0.0s|     1 |     0 |    33 |     - |  3955k |   0 | 142 | 329 | 333 |   8 |  1 |   3 |   0 | 1.997020e+01 | 2.399026e+02 |1101.30%| unknown
  0.0s|     1 |     0 |    41 |     - |  3992k |   0 | 142 | 329 | 341 |  16 |  2 |   3 |   0 | 1.997020e+01 | 2.399026e+02 |1101.30%| unknown
  0.0s|     1 |     0 |    59 |     - |  4054k |   0 | 142 | 329 | 346 |  21 |  3 |   3 |   0 | 1.997020e+01 | 2.399026e+02 |1101.30%| unknown
  0.0s|     1 |     0 |    70 |     - |  4091k |   0 | 142 | 329 | 353 |  28 |  4 |   3 |   0 | 1.997020e+01 | 2.399026e+02 |1101.30%| unknown
  0.0s|     1 |     0 |    77 |     - |  4136k |   0 | 142 | 329 | 361 |  36 |  5 |   3 |   0 | 1.997020e+01 | 2.399026e+02 |1101.30%| unknown
  0.0s|     1 |     0 |    85 |     - |  4175k |   0 | 142 | 329 | 369 |  44 |  6 |   3 |   0 | 1.997020e+01 | 2.399026e+02 |1101.30%| unknown
  0.0s|     1 |     0 |   110 |     - |  4217k |   0 | 142 | 329 | 376 |  51 |  7 |   3 |   0 | 2.092018e+01 | 2.399026e+02 |1046.75%| unknown
  0.0s|     1 |     0 |   123 |     - |  4325k |   0 | 142 | 329 | 382 |  57 |  8 |   3 |   0 | 2.282013e+01 | 2.399026e+02 | 951.28%| unknown
  0.0s|     1 |     0 |   129 |     - |  4370k |   0 | 142 | 329 | 387 |  62 |  9 |   3 |   0 | 2.282013e+01 | 2.399026e+02 | 951.28%| unknown
  0.0s|     1 |     0 |   143 |     - |  4463k |   0 | 142 | 329 | 390 |  65 | 10 |   3 |   0 | 2.282013e+01 | 2.399026e+02 | 951.28%| unknown
  0.0s|     1 |     0 |   152 |     - |  4582k |   0 | 142 | 329 | 397 |  73 | 11 |   3 |   0 | 2.282013e+01 | 2.399026e+02 | 951.28%| unknown
  0.0s|     1 |     0 |   160 |     - |  4685k |   0 | 142 | 329 | 404 |  80 | 12 |   3 |   0 | 2.282013e+01 | 2.399026e+02 | 951.28%| unknown
  0.0s|     1 |     0 |   174 |     - |  4729k |   0 | 142 | 329 | 407 |  83 | 13 |   3 |   0 | 2.282013e+01 | 2.399026e+02 | 951.28%| unknown
 time | node  | left  |LP iter|LP it/n|mem/heur|mdpt |vars |cons |rows |cuts |sepa|confs|strbr|  dualbound   | primalbound  |  gap   | compl. 
  0.0s|     1 |     0 |   181 |     - |  4809k |   0 | 142 | 329 | 411 |  87 | 14 |   3 |   0 | 2.282013e+01 | 2.399026e+02 | 951.28%| unknown
  0.0s|     1 |     0 |   189 |     - |  4858k |   0 | 142 | 331 | 414 |  90 | 15 |   5 |   0 | 2.282013e+01 | 2.399026e+02 | 951.28%| unknown
  0.0s|     1 |     0 |   192 |     - |  4903k |   0 | 142 | 331 | 418 |  94 | 16 |   5 |   0 | 2.282013e+01 | 2.399026e+02 | 951.28%| unknown
  0.0s|     1 |     0 |   209 |     - |  4951k |   0 | 142 | 331 | 404 |  96 | 17 |   5 |   0 | 2.282013e+01 | 2.399026e+02 | 951.28%| unknown
  0.0s|     1 |     0 |   220 |     - |  4970k |   0 | 142 | 331 | 408 | 100 | 18 |   5 |   0 | 2.282013e+01 | 2.399026e+02 | 951.28%| unknown
  0.0s|     1 |     0 |   232 |     - |  5014k |   0 | 142 | 331 | 412 | 104 | 19 |   5 |   0 | 2.282013e+01 | 2.399026e+02 | 951.28%| unknown
  0.0s|     1 |     0 |   243 |     - |  5058k |   0 | 142 | 331 | 416 | 108 | 20 |   5 |   0 | 2.282013e+01 | 2.399026e+02 | 951.28%| unknown
  0.1s|     1 |     0 |   250 |     - |  5316k |   0 | 142 | 331 | 422 | 114 | 21 |   5 |   0 | 2.282013e+01 | 2.399026e+02 | 951.28%| unknown
  0.1s|     1 |     0 |   254 |     - |  5321k |   0 | 142 | 331 | 427 | 119 | 22 |   5 |   0 | 2.282013e+01 | 2.399026e+02 | 951.28%| unknown
  0.1s|     1 |     0 |   255 |     - |  5326k |   0 | 142 | 331 | 399 | 120 | 23 |   5 |   0 | 2.282013e+01 | 2.399026e+02 | 951.28%| unknown
d 0.1s|     1 |     0 |  1323 |     - |conflict|   0 | 142 | 331 | 399 |   0 | 24 |   5 |   0 | 2.282013e+01 | 2.351209e+02 | 930.32%| unknown
  0.1s|     1 |     0 |  1323 |     - |  5381k |   0 | 142 | 331 | 399 | 120 | 24 |   5 |   0 | 2.282013e+01 | 2.351209e+02 | 930.32%| unknown
  0.1s|     1 |     2 |  1323 |     - |  5382k |   0 | 142 | 331 | 399 | 120 | 25 |   5 |   8 | 2.282013e+01 | 2.351209e+02 | 930.32%| unknown
* 0.1s|     2 |     1 |  1518 |1263.0 |strongbr|   1 | 142 | 333 | 372 | 120 |  3 |   7 |  13 | 2.282013e+01 | 2.322710e+02 | 917.83%| unknown
* 0.1s|     8 |     1 |  2228 | 281.9 |strongbr|   4 | 142 | 327 | 372 | 120 |  2 |  14 |  69 | 2.282013e+01 | 1.322710e+02 | 479.62%|  38.31%

SCIP Status        : problem is solved [optimal solution found]
Solving Time (sec) : 0.22
Solving Nodes      : 25
Primal Bound       : +1.32270984000000e+02 (4 solutions)
Dual Bound         : +1.32270984000000e+02
Gap                : 0.00 %
